750
150 150
1 120 678
2 120 55
3 120 879
4 120 601
5 120 534
6 120 220
7 120 112
8 119 485
9 119 910
10 119 901
11 119 445
12 119 85
13 119 520
14 119 356
15 119 340
16 119 557
17 119 538
18 118 38
19 118 816
20 118 691
21 118 767
22 118 772
23 118 824
24 118 387
25 118 605
26 118 254
27 117 603
28 117 973
29 117 444
30 117 156
31 117 720
32 117 467
33 117 902
34 117 679
35 117 535
36 116 870
37 116 30
38 116 965
39 116 216
40 116 678
41 116 760
42 116 113
43 116 109
44 116 445
45 116 787
46 115 910
47 115 839
48 115 786
49 115 822
50 114 968
51 114 454
52 114 872
53 114 829
54 113 441
55 113 142
56 113 667
57 113 61
58 113 218
59 113 411
60 113 410
61 113 805
62 112 779
63 112 461
64 112 31
65 112 92
66 112 437
67 112 361
68 112 391
69 112 919
70 112 278
71 111 801
72 111 20
73 111 474
74 111 93
75 111 182
76 111 856
77 111 175
78 111 892
79 111 442
80 110 332
81 110 615
82 110 267
83 110 924
84 109 918
85 109 757
86 109 233
87 109 150
88 109 178
89 109 661
90 108 869
91 108 118
92 108 871
93 108 716
94 107 296
95 107 495
96 107 977
97 107 661
98 107 118
99 106 284
100 106 453
101 106 686
102 106 288
103 106 143
104 106 794
105 106 40
106 106 811
107 106 910
108 106 506
109 105 388
110 105 919
111 105 584
112 105 899
113 105 261
114 104 961
115 104 36
116 103 121
117 103 323
118 103 880
119 103 952
120 103 113
121 103 636
122 103 582
123 103 32
124 102 318
125 102 608
126 102 828
127 102 274
128 102 182
129 102 469
130 102 122
131 102 38
132 102 417
133 102 333
134 101 940
135 101 882
136 101 42
137 101 376
138 101 481
139 100 740
140 100 553
141 100 911
142 100 750
143 100 924
144 100 480
145 100 691
146 100 229
147 99 629
148 99 132
149 99 505
150 98 872
151 98 958
152 98 397
153 98 691
154 98 448
155 97 458
156 97 323
157 97 268
158 97 293
159 97 844
160 97 884
161 97 641
162 96 784
163 96 498
164 96 116
165 96 568
166 96 634
167 96 680
168 96 744
169 96 676
170 95 619
171 95 208
172 95 514
173 95 448
174 95 640
175 95 351
176 95 365
177 95 672
178 95 288
179 94 964
180 94 176
181 94 706
182 94 428
183 94 904
184 94 940
185 94 109
186 93 618
187 93 706
188 93 698
189 93 173
190 93 624
191 93 751
192 93 560
193 92 249
194 92 290
195 92 48
196 92 198
197 92 347
198 92 145
199 92 122
200 92 760
201 91 629
202 91 662
203 91 981
204 91 880
205 91 319
206 91 110
207 91 807
208 91 960
209 91 437
210 90 937
211 90 592
212 90 332
213 90 780
214 90 980
215 90 499
216 90 925
217 90 350
218 90 3
219 89 91
220 89 179
221 89 492
222 89 459
223 89 898
224 89 305
225 89 874
226 89 332
227 89 344
228 88 262
229 88 424
230 88 768
231 88 45
232 88 811
233 88 36
234 88 41
235 88 547
236 88 80
237 88 385
238 88 588
239 87 831
240 87 698
241 87 887
242 87 968
243 87 834
244 87 756
245 86 92
246 86 736
247 86 64
248 86 528
249 86 267
250 86 492
251 86 219
252 85 31
253 85 528
254 85 721
255 85 658
256 85 143
257 84 324
258 84 672
259 84 715
260 84 619
261 84 568
262 84 580
263 84 544
264 84 589
265 84 233
266 84 221
267 84 61
268 83 933
269 83 304
270 83 642
271 83 635
272 83 319
273 83 980
274 82 31
275 82 766
276 82 258
277 82 589
278 82 46
279 82 891
280 82 921
281 82 659
282 82 831
283 82 920
284 81 347
285 81 972
286 81 469
287 81 115
288 80 174
289 80 300
290 80 567
291 80 809
292 80 993
293 80 26
294 80 791
295 80 263
296 79 806
297 79 689
298 79 333
299 79 708
300 79 944
301 78 224
302 78 406
303 78 835
304 78 461
305 78 962
306 77 121
307 77 126
308 77 445
309 77 600
310 77 676
311 77 317
312 77 282
313 77 149
314 76 403
315 76 367
316 76 278
317 76 562
318 76 206
319 76 310
320 76 248
321 76 351
322 75 235
323 75 373
324 75 400
325 75 791
326 75 385
327 75 640
328 75 140
329 75 71
330 74 322
331 74 426
332 74 102
333 74 549
334 74 468
335 74 530
336 74 371
337 74 45
338 73 435
339 73 947
340 73 419
341 73 670
342 73 624
343 73 163
344 72 642
345 72 741
346 72 758
347 72 549
348 71 711
349 71 707
350 71 48
351 71 132
352 71 997
353 71 981
354 71 726
355 71 902
356 71 677
357 70 740
358 70 815
359 70 187
360 70 62
361 70 177
362 70 826
363 69 106
364 69 218
365 69 893
366 68 108
367 68 631
368 68 446
369 68 825
370 68 490
371 68 53
372 68 301
373 68 401
374 68 395
375 67 825
376 67 870
377 67 136
378 67 657
379 66 841
380 66 398
381 66 360
382 66 3
383 66 41
384 66 225
385 65 302
386 65 167
387 65 548
388 65 952
389 65 627
390 65 587
391 65 384
392 64 552
393 64 693
394 64 104
395 64 813
396 64 758
397 63 815
398 63 889
399 63 611
400 63 753
401 63 337
402 63 467
403 62 612
404 62 478
405 62 253
406 62 17
407 61 730
408 61 822
409 61 113
410 61 946
411 61 392
412 61 612
413 61 207
414 61 17
415 60 899
416 60 850
417 60 989
418 59 96
419 59 828
420 59 353
421 59 211
422 59 778
423 59 516
424 59 413
425 58 549
426 58 880
427 58 476
428 58 930
429 58 359
430 58 37
431 58 418
432 58 892
433 58 485
434 58 278
435 58 920
436 58 432
437 57 48
438 57 160
439 57 152
440 57 778
441 57 503
442 57 818
443 57 608
444 56 965
445 56 581
446 56 950
447 56 870
448 55 148
449 55 258
450 55 865
451 55 230
452 55 124
453 55 121
454 55 286
455 55 786
456 54 439
457 54 542
458 53 788
459 53 290
460 53 821
461 53 406
462 53 823
463 53 902
464 53 833
465 53 486
466 52 563
467 52 277
468 52 682
469 52 566
470 52 864
471 52 905
472 51 263
473 51 236
474 51 743
475 51 851
476 51 499
477 51 994
478 51 301
479 50 395
480 50 531
481 50 410
482 50 414
483 50 203
484 50 310
485 49 226
486 49 642
487 49 248
488 49 861
489 49 675
490 49 57
491 48 373
492 48 78
493 48 839
494 48 413
495 48 361
496 48 521
497 47 357
498 47 824
499 47 938
500 47 661
501 47 53
502 47 287
503 47 658
504 47 687
505 47 429
506 47 118
507 46 748
508 46 794
509 46 18
510 46 979
511 46 366
512 46 62
513 46 673
514 46 753
515 46 249
516 46 997
517 46 150
518 45 655
519 45 381
520 45 384
521 45 46
522 45 656
523 45 350
524 45 874
525 45 308
526 44 754
527 44 163
528 44 105
529 44 94
530 44 707
531 43 89
532 43 189
533 43 131
534 43 996
535 43 60
536 43 968
537 42 577
538 42 403
539 42 281
540 42 609
541 41 188
542 41 525
543 41 212
544 40 668
545 40 460
546 40 859
547 40 391
548 40 936
549 40 742
550 40 480
551 40 238
552 40 371
553 39 827
554 39 676
555 39 907
556 39 811
557 39 962
558 38 122
559 38 735
560 38 725
561 38 374
562 38 384
563 38 792
564 38 527
565 38 245
566 38 218
567 37 461
568 37 213
569 37 625
570 37 475
571 37 343
572 37 157
573 37 204
574 36 757
575 36 993
576 36 223
577 36 636
578 36 185
579 36 992
580 36 228
581 35 382
582 35 740
583 35 95
584 35 71
585 35 492
586 35 652
587 35 20
588 34 934
589 34 159
590 34 506
591 34 468
592 34 550
593 34 312
594 34 155
595 34 548
596 34 90
597 34 983
598 34 465
599 34 411
600 34 550
601 34 865
602 34 32
603 33 265
604 33 759
605 33 264
606 33 430
607 33 279
608 33 415
609 33 979
610 33 231
611 32 755
612 32 346
613 32 320
614 32 914
615 32 161
616 32 359
617 32 397
618 31 181
619 31 648
620 31 230
621 31 52
622 31 897
623 31 964
624 31 473
625 31 438
626 30 336
627 30 353
628 30 456
629 30 797
630 30 418
631 30 803
632 30 490
633 30 218
634 30 515
635 30 83
636 30 914
637 30 714
638 30 729
639 30 359
640 30 109
641 30 702
642 29 714
643 29 816
644 29 446
645 29 821
646 29 750
647 29 955
648 28 235
649 28 797
650 28 290
651 28 471
652 28 460
653 28 989
654 28 156
655 28 82
656 28 959
657 28 499
658 28 167
659 28 916
660 28 42
661 28 381
662 27 122
663 27 822
664 27 948
665 27 20
666 27 52
667 27 888
668 27 708
669 26 845
670 26 758
671 26 539
672 26 486
673 26 309
674 26 552
675 25 246
676 25 650
677 25 216
678 25 264
679 25 468
680 25 563
681 25 480
682 24 172
683 24 482
684 24 238
685 24 462
686 24 770
687 24 640
688 24 534
689 24 993
690 24 560
691 24 781
692 24 89
693 24 807
694 23 770
695 23 477
696 23 427
697 23 727
698 23 278
699 23 116
700 23 301
701 22 113
702 22 602
703 22 293
704 22 274
705 22 342
706 22 142
707 22 277
708 21 164
709 21 738
710 21 238
711 21 518
712 21 332
713 21 18
714 20 155
715 20 538
716 20 830
717 20 402
718 20 558
719 20 49
720 19 845
721 19 25
722 19 306
723 19 862
724 19 440
725 19 469
726 19 773
727 18 61
728 18 211
729 18 850
730 18 813
731 18 927
732 18 820
733 18 346
734 18 868
735 17 467
736 17 888
737 17 743
738 17 771
739 17 131
740 17 179
741 16 411
742 16 490
743 16 836
744 16 936
745 16 302
746 16 652
747 16 773
748 15 57
749 15 832
750 15 793
